n=8;
Min=2;
Max=5;
D=[|0, 455, 449, 606, 228, 219, 439, 618
|455, 0, 794, 241, 397, 464, 564, 417
|449, 794, 0, 675, 397, 230, 230, 377
|606, 241, 675, 0, 378, 387, 445, 298
|228, 397, 397, 378, 0, 67, 261, 390
|219, 464, 230, 387, 67, 0, 229, 399
|439, 564, 230, 445, 261, 229, 0, 179
|618, 417, 377, 298, 390, 399, 179, 0|];